(set-logic QF_S)
(declare-fun var0 () String)
(declare-fun var1 () String)
(declare-fun var2 () String)
(declare-fun var3 () String)
(declare-fun var4 () String)
(declare-fun var5 () String)
(declare-fun var6 () String)
(declare-fun var7 () String)
(declare-fun var8 () String)
(declare-fun var9 () String)
(declare-fun var10 () String)
(declare-fun var11 () String)
(declare-fun var12 () String)
(declare-fun var13 () String)
(declare-fun var14 () String)
(declare-fun var15 () String)
(declare-fun var16 () String)
(declare-fun var17 () String)
(declare-fun var18 () String)
(declare-fun var19 () String)
(declare-fun var20 () String)
(declare-fun var21 () String)
(declare-fun var22 () String)
(declare-fun var23 () String)
(declare-fun var24 () String)
(declare-fun var25 () String)
(declare-fun var26 () String)
(declare-fun var27 () String)
(declare-fun var28 () String)
(declare-fun var29 () String)
(declare-fun var30 () String)
(declare-fun var31 () String)
(declare-fun var32 () String)
(declare-fun var33 () String)
(declare-fun var34 () String)
(declare-fun var35 () String)
(declare-fun var36 () String)
(declare-fun var37 () String)
(declare-fun var38 () String)
(declare-fun var39 () String)
(declare-fun var40 () String)
(declare-fun var41 () String)
(declare-fun var42 () String)
(declare-fun var43 () String)
(declare-fun var44 () String)
(declare-fun var45 () String)
(declare-fun var46 () String)
(declare-fun var47 () String)
(declare-fun var48 () String)
(declare-fun var49 () String)
(declare-fun var50 () String)
(declare-fun var51 () String)
(declare-fun var52 () String)
(declare-fun var53 () String)
(declare-fun var54 () String)
(declare-fun var55 () String)
(declare-fun var56 () String)
(declare-fun var57 () String)
(declare-fun var58 () String)
(declare-fun var59 () String)
(declare-fun var60 () String)
(assert (= var0 (Concat var1 var2)))
(assert (= var2 (Concat var3 var4)))
(assert (= var4 (Concat var5 var6)))
(assert (= var6 (Concat var7 var8)))
(assert (= var8 (Concat var9 var10)))
(assert (= var10 (Concat var11 var12)))
(assert (= var12 (Concat var13 var14)))
(assert (= var14 (Concat var15 var16)))
(assert (= var16 (Concat var17 var18)))
(assert (= var18 (Concat var19 var20)))
(assert (= var20 (Concat var21 var22)))
(assert (= var22 (Concat var23 var24)))
(assert (= var24 (Concat var25 var26)))
(assert (= var26 (Concat var27 var28)))
(assert (= var28 (Concat var29 var30)))
(assert (= var30 (Concat var31 var32)))
(assert (= var32 (Concat var33 var34)))
(assert (= var34 (Concat var35 var36)))
(assert (= var36 (Concat var37 var38)))
(assert (= var38 (Concat var39 var40)))
(assert (= var40 (Concat var41 var42)))
(assert (= var42 (Concat var43 var44)))
(assert (= var44 (Concat var45 var46)))
(assert (= var46 (Concat var47 var48)))
(assert (= var48 (Concat var49 var50)))
(assert (= var50 (Concat var51 var52)))
(assert (= var52 (Concat var53 var54)))
(assert (= var54 (Concat var55 var56)))
(assert (= var56 (Concat var57 var58)))
(assert (= var58 (Concat var59 var60)))
(assert (= var0 "solution"))
(assert (= "^" (CharAt var13 155)))
(assert (= "t" (CharAt var42 495)))
(assert (= "X" (CharAt var26 616)))
(assert (= "P" (CharAt var15 618)))
(assert (= "I" (CharAt var56 586)))
(assert (= "N" (CharAt var6 364)))
(assert (= "o" (CharAt var13 898)))
(assert (= "@" (CharAt var10 425)))
(assert (= "O" (CharAt var33 289)))
(assert (= "E" (CharAt var12 585)))
(assert (= "&" (CharAt var29 435)))
(assert (= "d" (CharAt var10 922)))
(assert (= "3" (CharAt var60 592)))
(assert (= "=" (CharAt var60 568)))
(assert (= "\"" (CharAt var39 31)))
(assert (= "1" (CharAt var56 923)))
(assert (= "R" (CharAt var17 839)))
(assert (= "B" (CharAt var52 930)))
(assert (= "h" (CharAt var27 840)))
(assert (= "|" (CharAt var27 270)))
(assert (= "f" (CharAt var10 888)))
(assert (= "!" (CharAt var4 774)))
(assert (= "i" (CharAt var33 407)))
(assert (= "^" (CharAt var42 863)))
(assert (= "F" (CharAt var39 518)))
(assert (= "S" (CharAt var24 591)))
(assert (= "\\" (CharAt var9 464)))
(assert (= "8" (CharAt var46 972)))
(assert (= "R" (CharAt var2 828)))
(assert (= "-" (CharAt var49 306)))
(assert (= "j" (CharAt var57 806)))
(assert (= "i" (CharAt var30 619)))
(assert (= "c" (CharAt var24 462)))
(assert (= "\"" (CharAt var48 673)))
(assert (= "c" (CharAt var27 511)))
(assert (= "3" (CharAt var37 697)))
(assert (= "_" (CharAt var36 455)))
(assert (= "{" (CharAt var47 930)))
(assert (= "=" (CharAt var15 380)))
(assert (= "m" (CharAt var3 203)))
(assert (= "|" (CharAt var6 224)))
(assert (= "}" (CharAt var44 298)))
(assert (= "K" (CharAt var55 485)))
(assert (= "S" (CharAt var46 370)))
(assert (= "(" (CharAt var49 262)))
(assert (= "*" (CharAt var26 721)))
(assert (= "e" (CharAt var38 273)))
(assert (= "V" (CharAt var5 334)))
(assert (= "o" (CharAt var15 161)))
(assert (= "j" (CharAt var7 950)))
(assert (= "u" (CharAt var44 47)))
(assert (= "a" (CharAt var25 50)))
(assert (= "1" (CharAt var35 31)))
(assert (= "#" (CharAt var12 280)))
(assert (= "b" (CharAt var33 291)))
(assert (= "g" (CharAt var14 406)))
(assert (= "F" (CharAt var38 51)))
(assert (= "u" (CharAt var45 739)))
(assert (= "6" (CharAt var24 368)))
(assert (= "I" (CharAt var5 201)))
(assert (= "\"" (CharAt var16 909)))
(assert (= "W" (CharAt var58 574)))
(assert (= "f" (CharAt var14 86)))
(assert (= "E" (CharAt var7 158)))
(assert (= "." (CharAt var29 649)))
(assert (= "~" (CharAt var26 976)))
(assert (= "^" (CharAt var35 669)))
(assert (= "2" (CharAt var27 895)))
(assert (= "1" (CharAt var25 979)))
(assert (= "o" (CharAt var15 584)))
(assert (= "L" (CharAt var5 683)))
(assert (= "p" (CharAt var59 85)))
(assert (= ">" (CharAt var50 410)))
(assert (= "0" (CharAt var33 134)))
(assert (= "~" (CharAt var4 178)))
(assert (= ";" (CharAt var21 629)))
(assert (= "k" (CharAt var51 325)))
(assert (= "A" (CharAt var41 508)))
(assert (= ";" (CharAt var33 849)))
(assert (= "f" (CharAt var43 691)))
(assert (= "M" (CharAt var56 467)))
(assert (= ">" (CharAt var7 992)))
(assert (= "N" (CharAt var43 504)))
(assert (= "s" (CharAt var10 599)))
(assert (= "J" (CharAt var52 435)))
(assert (= "=" (CharAt var8 570)))
(assert (= "]" (CharAt var22 742)))
(assert (= "M" (CharAt var55 195)))
(assert (= ")" (CharAt var58 409)))
(assert (= "R" (CharAt var1 431)))
(assert (= "o" (CharAt var26 829)))
(assert (= "?" (CharAt var33 991)))
(assert (= "5" (CharAt var16 719)))
(assert (= "+" (CharAt var48 418)))
(assert (= "5" (CharAt var31 23)))
(assert (= "&" (CharAt var56 764)))
(assert (= "m" (CharAt var34 280)))
(assert (= "F" (CharAt var18 540)))
(assert (= "x" (CharAt var57 215)))
(assert (= "k" (CharAt var53 666)))
(assert (= "0" (CharAt var27 59)))
(assert (= "$" (CharAt var17 492)))
(assert (= "\"" (CharAt var12 399)))
(assert (= "6" (CharAt var26 372)))
(assert (= "c" (CharAt var15 392)))
(assert (= "0" (CharAt var5 977)))
(assert (= "d" (CharAt var5 311)))
(assert (= "8" (CharAt var13 431)))
(assert (= "=" (CharAt var21 552)))
(assert (= "&" (CharAt var38 828)))
(assert (= "w" (CharAt var47 368)))
(assert (= "b" (CharAt var37 105)))
(assert (= "U" (CharAt var58 43)))
(assert (= "W" (CharAt var4 710)))
(assert (= "O" (CharAt var8 617)))
(assert (= "@" (CharAt var52 585)))
(assert (= "3" (CharAt var46 267)))
(assert (= "%" (CharAt var33 495)))
(assert (= "w" (CharAt var34 646)))
(assert (= "w" (CharAt var49 161)))
(assert (= "~" (CharAt var38 573)))
(assert (= "s" (CharAt var12 549)))
(assert (= "." (CharAt var35 494)))
(assert (= "D" (CharAt var10 848)))
(assert (= "e" (CharAt var6 233)))
(assert (= "'" (CharAt var31 231)))
(assert (= "f" (CharAt var22 581)))
(assert (= "#" (CharAt var12 89)))
(assert (= "S" (CharAt var48 345)))
(assert (= "\"" (CharAt var37 368)))
(assert (= "P" (CharAt var24 899)))
(assert (= "u" (CharAt var41 808)))
(assert (= "." (CharAt var36 830)))
(assert (= "G" (CharAt var30 578)))
(assert (= "#" (CharAt var14 459)))
(assert (= ")" (CharAt var46 891)))
(assert (= "@" (CharAt var4 461)))
(assert (= "Y" (CharAt var29 285)))
(assert (= "f" (CharAt var43 703)))
(assert (= "N" (CharAt var52 65)))
(assert (= "t" (CharAt var38 224)))
(assert (= "/" (CharAt var5 527)))
(assert (= "/" (CharAt var41 950)))
(assert (= "z" (CharAt var26 555)))
(assert (= "G" (CharAt var30 761)))
(assert (= "z" (CharAt var38 92)))
(assert (= "U" (CharAt var45 957)))
(assert (= "j" (CharAt var36 982)))
(assert (= "S" (CharAt var42 445)))
(assert (= "@" (CharAt var27 828)))
(assert (= "*" (CharAt var30 536)))
(assert (= "]" (CharAt var60 468)))
(assert (= "A" (CharAt var21 772)))
(assert (= "y" (CharAt var17 139)))
(assert (= "t" (CharAt var52 285)))
(assert (= "d" (CharAt var8 718)))
(assert (= "t" (CharAt var60 784)))
(assert (= "F" (CharAt var28 658)))
(assert (= "f" (CharAt var47 899)))
(assert (= "v" (CharAt var30 989)))
(assert (= "9" (CharAt var37 856)))
(assert (= "2" (CharAt var56 491)))
(assert (= "6" (CharAt var53 7)))
(assert (= "d" (CharAt var22 178)))
(assert (= "M" (CharAt var6 609)))
(assert (= "D" (CharAt var30 63)))
(assert (= "`" (CharAt var10 5)))
(assert (= "q" (CharAt var4 437)))
(assert (= "A" (CharAt var26 355)))
(assert (= "@" (CharAt var16 442)))
(assert (= "g" (CharAt var8 282)))
(assert (= "m" (CharAt var19 341)))
(assert (= "." (CharAt var31 269)))
(assert (= "/" (CharAt var54 193)))
(assert (= "b" (CharAt var54 636)))
(assert (= "V" (CharAt var40 445)))
(assert (= "n" (CharAt var40 65)))
(assert (= "A" (CharAt var6 521)))
(assert (= "{" (CharAt var58 572)))
(assert (= "#" (CharAt var19 266)))
(assert (= "`" (CharAt var58 393)))
(assert (= "&" (CharAt var18 325)))
(assert (= "S" (CharAt var48 698)))
(assert (= "^" (CharAt var38 892)))
(assert (= "P" (CharAt var44 595)))
(assert (= "y" (CharAt var24 788)))
(assert (= "U" (CharAt var32 299)))
(assert (= "Z" (CharAt var13 40)))
(assert (= "F" (CharAt var58 963)))
(assert (= "@" (CharAt var59 140)))
(assert (= "N" (CharAt var15 610)))
(assert (= "`" (CharAt var36 418)))
(assert (= "9" (CharAt var50 23)))
(assert (= "1" (CharAt var20 644)))
(assert (= "z" (CharAt var14 636)))
(assert (= "?" (CharAt var18 139)))
(assert (= "+" (CharAt var36 162)))
(assert (= "_" (CharAt var42 83)))
(assert (= "." (CharAt var54 680)))
(assert (= "[" (CharAt var40 93)))
(assert (= "n" (CharAt var23 27)))
(assert (= "*" (CharAt var28 692)))
(assert (= "-" (CharAt var7 475)))
(assert (= ":" (CharAt var13 114)))
(assert (= "p" (CharAt var54 242)))
(assert (= "j" (CharAt var48 359)))
(assert (= "v" (CharAt var48 432)))
(assert (= "V" (CharAt var5 222)))
(assert (= "R" (CharAt var42 535)))
(assert (= "/" (CharAt var23 36)))
(assert (= "?" (CharAt var18 281)))
(assert (= "\\" (CharAt var0 964)))
(assert (= "3" (CharAt var21 667)))
(assert (= "X" (CharAt var46 634)))
(assert (= "p" (CharAt var50 376)))
(assert (= "]" (CharAt var9 234)))
(assert (= "{" (CharAt var56 383)))
(assert (= "~" (CharAt var56 237)))
(assert (= "7" (CharAt var52 719)))
(assert (= "g" (CharAt var55 468)))
(assert (= "f" (CharAt var52 613)))
(assert (= "k" (CharAt var0 287)))
(assert (= "\\" (CharAt var10 117)))
(assert (= "W" (CharAt var39 110)))
(assert (= "E" (CharAt var22 289)))
(assert (= "&" (CharAt var48 331)))
(assert (= "y" (CharAt var4 521)))
(assert (= "*" (CharAt var1 419)))
(assert (= ")" (CharAt var13 256)))
(assert (= "r" (CharAt var60 544)))
(assert (= "O" (CharAt var48 114)))
(assert (= "C" (CharAt var27 549)))
(assert (= "x" (CharAt var12 844)))
(assert (= "h" (CharAt var56 61)))
(assert (= "w" (CharAt var48 804)))
(assert (= "}" (CharAt var56 128)))
(assert (= "p" (CharAt var13 180)))
(assert (= "{" (CharAt var23 522)))
(assert (= "T" (CharAt var42 361)))
(assert (= "U" (CharAt var10 10)))
(assert (= "u" (CharAt var41 752)))
(assert (= "h" (CharAt var17 482)))
(assert (= "_" (CharAt var49 280)))
(assert (= "[" (CharAt var0 334)))
(assert (= "G" (CharAt var47 385)))
(assert (= "N" (CharAt var18 833)))
(assert (= "{" (CharAt var40 385)))
(assert (= "'" (CharAt var43 594)))
(assert (= "h" (CharAt var3 510)))
(assert (= "B" (CharAt var30 675)))
(assert (= "m" (CharAt var6 933)))
(assert (= ">" (CharAt var1 383)))
(assert (= "B" (CharAt var41 598)))
(assert (= "\\" (CharAt var22 214)))
(assert (= "\\" (CharAt var39 132)))
(assert (= "4" (CharAt var8 565)))
(assert (= "K" (CharAt var59 221)))
(assert (= "r" (CharAt var18 405)))
(assert (= "}" (CharAt var46 178)))
(assert (= "I" (CharAt var25 541)))
(assert (= "U" (CharAt var46 183)))
(assert (= "A" (CharAt var1 928)))
(assert (= "G" (CharAt var22 567)))
(assert (= "G" (CharAt var23 177)))
(assert (= "x" (CharAt var29 557)))
(assert (= "v" (CharAt var30 365)))
(assert (= "t" (CharAt var15 407)))
(assert (= "b" (CharAt var37 243)))
(assert (= "'" (CharAt var45 106)))
(assert (= "l" (CharAt var9 580)))
(assert (= "\"" (CharAt var29 390)))
(assert (= "0" (CharAt var5 129)))
(assert (= "q" (CharAt var3 54)))
(assert (= "/" (CharAt var46 708)))
(assert (= "e" (CharAt var38 588)))
(assert (= "/" (CharAt var15 853)))
(assert (= "\"" (CharAt var7 199)))
(assert (= "F" (CharAt var59 70)))
(assert (= "c" (CharAt var36 582)))
(assert (= "!" (CharAt var26 18)))
(assert (= "H" (CharAt var45 267)))
(assert (= "a" (CharAt var59 167)))
(assert (= "r" (CharAt var14 415)))
(assert (= "~" (CharAt var13 646)))
(assert (= "r" (CharAt var23 833)))
(assert (= "U" (CharAt var51 810)))
(assert (= "3" (CharAt var4 411)))
(assert (= "Q" (CharAt var45 708)))
(assert (= "a" (CharAt var1 752)))
(assert (= "$" (CharAt var29 475)))
(assert (= ";" (CharAt var44 39)))
(assert (= ")" (CharAt var4 923)))
(assert (= "t" (CharAt var21 381)))
(assert (= "c" (CharAt var10 283)))
(assert (= ";" (CharAt var35 201)))
(assert (= "I" (CharAt var24 27)))
(assert (= "G" (CharAt var55 633)))
(assert (= "0" (CharAt var0 330)))
(assert (= "s" (CharAt var15 677)))
(assert (= "3" (CharAt var39 589)))
(assert (= "(" (CharAt var55 356)))
(assert (= "u" (CharAt var28 601)))
(assert (= "w" (CharAt var41 246)))
(assert (= "B" (CharAt var53 184)))
(assert (= "5" (CharAt var11 869)))
(assert (= "_" (CharAt var5 228)))
(assert (= "S" (CharAt var58 200)))
(assert (= "W" (CharAt var40 289)))
(assert (= ">" (CharAt var20 796)))
(assert (= "e" (CharAt var27 195)))
(assert (= "9" (CharAt var9 45)))
(assert (= "2" (CharAt var6 901)))
(assert (= "U" (CharAt var3 330)))
(assert (= "b" (CharAt var23 440)))
(assert (= "J" (CharAt var26 670)))
(assert (= "E" (CharAt var51 390)))
(assert (= "b" (CharAt var10 212)))
(assert (= "$" (CharAt var33 961)))
(assert (= "8" (CharAt var3 55)))
(assert (= "0" (CharAt var21 755)))
(assert (= "&" (CharAt var31 855)))
(assert (= "R" (CharAt var35 988)))
(assert (= "-" (CharAt var8 927)))
(assert (= "E" (CharAt var42 867)))
(assert (= "*" (CharAt var33 711)))
(assert (= "&" (CharAt var29 533)))
(assert (= "l" (CharAt var18 949)))
(assert (= ":" (CharAt var43 206)))
(assert (= "0" (CharAt var6 890)))
(assert (= "*" (CharAt var12 648)))
(assert (= "w" (CharAt var45 470)))
(assert (= "n" (CharAt var50 626)))
(assert (= "9" (CharAt var48 60)))
(assert (= "C" (CharAt var15 476)))
(assert (= "L" (CharAt var50 778)))
(assert (= "C" (CharAt var18 541)))
(assert (= "~" (CharAt var56 354)))
(assert (= ":" (CharAt var57 351)))
(assert (= "1" (CharAt var60 716)))
(assert (= ")" (CharAt var46 374)))
(assert (= "3" (CharAt var38 455)))
(assert (= "+" (CharAt var33 447)))
(assert (= "B" (CharAt var25 929)))
(assert (= "o" (CharAt var50 371)))
(assert (= "d" (CharAt var50 241)))
(assert (= "9" (CharAt var24 4)))
(assert (= "=" (CharAt var43 843)))
(assert (= "~" (CharAt var10 817)))
(assert (= "}" (CharAt var18 999)))
(assert (= "x" (CharAt var6 410)))
(assert (= "\"" (CharAt var36 126)))
(assert (= "L" (CharAt var51 277)))
(assert (= "k" (CharAt var45 197)))
(assert (= "9" (CharAt var2 936)))
(assert (= "Y" (CharAt var38 784)))
(assert (= "7" (CharAt var29 586)))
(assert (= "D" (CharAt var46 378)))
(assert (= "/" (CharAt var39 125)))
(assert (= "3" (CharAt var19 714)))
(assert (= "1" (CharAt var29 396)))
(assert (= "p" (CharAt var39 844)))
(assert (= "H" (CharAt var57 528)))
(assert (= "D" (CharAt var8 200)))
(assert (= "Q" (CharAt var59 927)))
(assert (= "o" (CharAt var45 449)))
(assert (= "i" (CharAt var18 740)))
(assert (= "w" (CharAt var35 829)))
(assert (= "&" (CharAt var38 673)))
(assert (= "'" (CharAt var57 216)))
(assert (= "O" (CharAt var15 299)))
(assert (= "5" (CharAt var56 156)))
(assert (= "&" (CharAt var1 463)))
(assert (= "A" (CharAt var54 345)))
(assert (= "e" (CharAt var38 38)))
(assert (= "%" (CharAt var52 574)))
(assert (= "f" (CharAt var40 142)))
(assert (= "m" (CharAt var20 314)))
(assert (= "U" (CharAt var59 732)))
(assert (= "1" (CharAt var29 884)))
(assert (= "w" (CharAt var15 136)))
(assert (= "[" (CharAt var55 456)))
(assert (= "W" (CharAt var58 793)))
(assert (= "#" (CharAt var27 72)))
(assert (= "d" (CharAt var19 437)))
(assert (= "m" (CharAt var20 370)))
(assert (= "`" (CharAt var32 91)))
(assert (= "i" (CharAt var19 756)))
(assert (= "{" (CharAt var7 799)))
(assert (= "D" (CharAt var6 594)))
(assert (= "%" (CharAt var22 333)))
(assert (= "_" (CharAt var9 503)))
(assert (= "`" (CharAt var39 880)))
(assert (= "E" (CharAt var47 662)))
(assert (= "[" (CharAt var17 687)))
(assert (= "4" (CharAt var39 567)))
(assert (= "]" (CharAt var21 618)))
(assert (= "[" (CharAt var6 584)))
(assert (= "^" (CharAt var21 525)))
(assert (= "e" (CharAt var11 196)))
(assert (= "L" (CharAt var57 640)))
(assert (= ">" (CharAt var38 138)))
(assert (= "L" (CharAt var29 928)))
(assert (= ":" (CharAt var17 23)))
(assert (= "$" (CharAt var58 876)))
(assert (= "{" (CharAt var20 662)))
(assert (= "~" (CharAt var29 367)))
(assert (= "I" (CharAt var34 773)))
(assert (= "0" (CharAt var49 242)))
(assert (= "d" (CharAt var23 555)))
(assert (= "R" (CharAt var55 518)))
(assert (= "," (CharAt var6 588)))
(assert (= "R" (CharAt var0 800)))
(assert (= ")" (CharAt var51 105)))
(assert (= "." (CharAt var15 879)))
(assert (= "I" (CharAt var38 989)))
(assert (= "j" (CharAt var37 964)))
(assert (= "N" (CharAt var2 785)))
(assert (= "_" (CharAt var34 908)))
(assert (= "o" (CharAt var58 748)))
(assert (= "|" (CharAt var28 170)))
(assert (= "W" (CharAt var15 674)))
(assert (= "g" (CharAt var39 79)))
(assert (= "0" (CharAt var18 770)))
(assert (= "a" (CharAt var6 183)))
(assert (= "8" (CharAt var55 795)))
(assert (= "R" (CharAt var23 875)))
(assert (= "0" (CharAt var4 308)))
(assert (= "`" (CharAt var20 951)))
(assert (= "V" (CharAt var51 122)))
(assert (= "K" (CharAt var31 591)))
(assert (= ">" (CharAt var22 691)))
(assert (= "*" (CharAt var2 773)))
(assert (= ">" (CharAt var53 663)))
(assert (= "6" (CharAt var6 79)))
(assert (= ":" (CharAt var45 143)))
(assert (= "a" (CharAt var22 54)))
(assert (= "o" (CharAt var1 184)))
(assert (= "p" (CharAt var15 914)))
(assert (= "s" (CharAt var12 798)))
(assert (= "k" (CharAt var48 407)))
(assert (= "&" (CharAt var41 549)))
(assert (= "A" (CharAt var48 255)))
(assert (= ")" (CharAt var18 796)))
(assert (= "u" (CharAt var10 617)))
(assert (= "'" (CharAt var42 515)))
(assert (= "<" (CharAt var42 378)))
(assert (= "/" (CharAt var34 410)))
(assert (= "f" (CharAt var56 23)))
(assert (= "H" (CharAt var9 49)))
(assert (= "O" (CharAt var17 581)))
(assert (= "K" (CharAt var56 430)))
(assert (= "6" (CharAt var1 564)))
(assert (= "I" (CharAt var1 311)))
(assert (= "," (CharAt var32 704)))
(assert (= "K" (CharAt var23 270)))
(assert (= "S" (CharAt var3 525)))
(assert (= "=" (CharAt var17 774)))
(assert (= "w" (CharAt var3 914)))
(assert (= "0" (CharAt var50 112)))
(assert (= "w" (CharAt var5 498)))
(assert (= "E" (CharAt var53 800)))
(assert (= "." (CharAt var18 520)))
(assert (= "#" (CharAt var5 682)))
(assert (= "h" (CharAt var42 419)))
(assert (= "A" (CharAt var0 503)))
(assert (= "`" (CharAt var23 87)))
(assert (= "X" (CharAt var60 931)))
(assert (= "X" (CharAt var45 614)))
(assert (= "B" (CharAt var57 898)))
(assert (= "]" (CharAt var55 79)))
(assert (= "$" (CharAt var49 235)))
(assert (= "e" (CharAt var14 804)))
(assert (= "d" (CharAt var59 764)))
(assert (= "V" (CharAt var8 638)))
(assert (= ":" (CharAt var53 692)))
(assert (= "J" (CharAt var2 680)))
(assert (= "D" (CharAt var52 567)))
(assert (= "q" (CharAt var44 276)))
(assert (= "i" (CharAt var24 828)))
(assert (= "v" (CharAt var9 764)))
(assert (= "H" (CharAt var0 641)))
(assert (= "S" (CharAt var51 249)))
(assert (= "J" (CharAt var50 936)))
(assert (= "#" (CharAt var4 601)))
(assert (= "R" (CharAt var60 904)))
(assert (= "s" (CharAt var48 830)))
(assert (= "," (CharAt var17 431)))
(assert (= "!" (CharAt var2 618)))
(assert (= "~" (CharAt var45 171)))
(assert (= "A" (CharAt var14 808)))
(assert (= "T" (CharAt var38 907)))
(assert (= "]" (CharAt var43 216)))
(assert (= "q" (CharAt var7 843)))
(assert (= "L" (CharAt var11 5)))
(assert (= "L" (CharAt var4 37)))
(assert (= "9" (CharAt var31 372)))
(assert (= "u" (CharAt var22 647)))
(assert (= "*" (CharAt var2 824)))
(assert (= "i" (CharAt var11 265)))
(assert (= "d" (CharAt var49 197)))
(assert (= "Q" (CharAt var35 209)))
(assert (= "x" (CharAt var30 662)))
(assert (= "|" (CharAt var16 703)))
(assert (= "=" (CharAt var48 78)))
(assert (= "f" (CharAt var4 237)))
(assert (= "-" (CharAt var18 792)))
(assert (= "w" (CharAt var42 879)))
(assert (= "{" (CharAt var3 807)))
(assert (= "w" (CharAt var33 100)))
(assert (= "W" (CharAt var14 159)))
(assert (= "B" (CharAt var23 159)))
(assert (= ">" (CharAt var10 171)))
(assert (= ")" (CharAt var20 308)))
(assert (= "6" (CharAt var48 157)))
(assert (= "^" (CharAt var32 938)))
(assert (= "=" (CharAt var21 31)))
(assert (= "U" (CharAt var56 833)))
(assert (= "u" (CharAt var28 885)))
(assert (= "(" (CharAt var4 122)))
(assert (= "I" (CharAt var32 973)))
(assert (= "^" (CharAt var4 693)))
(assert (= "?" (CharAt var33 412)))
(assert (= "P" (CharAt var34 907)))
(assert (= "0" (CharAt var19 256)))
(assert (= "B" (CharAt var37 717)))
(assert (= "N" (CharAt var54 565)))
(assert (= "9" (CharAt var5 721)))
(assert (= "\\" (CharAt var33 517)))
(assert (= "e" (CharAt var25 319)))
(assert (= "3" (CharAt var40 47)))
(assert (= "q" (CharAt var59 212)))
(assert (= "j" (CharAt var10 650)))
(assert (= "n" (CharAt var27 696)))
(assert (= "m" (CharAt var45 705)))
(assert (= "s" (CharAt var2 455)))
(assert (= "'" (CharAt var4 621)))
(assert (= "\"" (CharAt var3 183)))
(assert (= "9" (CharAt var1 262)))
(assert (= "b" (CharAt var16 552)))
(assert (= "\\" (CharAt var26 192)))
(assert (= "N" (CharAt var5 636)))
(assert (= "D" (CharAt var32 132)))
(assert (= "O" (CharAt var31 654)))
(assert (= ";" (CharAt var30 412)))
(assert (= "d" (CharAt var45 894)))
(assert (= "B" (CharAt var54 468)))
(assert (= "e" (CharAt var38 285)))
(assert (= "K" (CharAt var52 456)))
(assert (= "i" (CharAt var11 273)))
(assert (= "l" (CharAt var16 277)))
(assert (= "z" (CharAt var50 73)))
(assert (= "9" (CharAt var40 190)))
(assert (= "f" (CharAt var11 927)))
(assert (= "X" (CharAt var30 116)))
(assert (= "1" (CharAt var36 123)))
(assert (= "%" (CharAt var30 291)))
(assert (= "." (CharAt var21 522)))
(assert (= "E" (CharAt var59 177)))
(assert (= "i" (CharAt var7 55)))
(assert (= "-" (CharAt var36 994)))
(assert (= "8" (CharAt var43 799)))
(assert (= "S" (CharAt var40 212)))
(assert (= "*" (CharAt var49 934)))
(assert (= "'" (CharAt var22 220)))
(assert (= "r" (CharAt var29 76)))
(assert (= "R" (CharAt var59 15)))
(assert (= "l" (CharAt var2 900)))
(assert (= "\"" (CharAt var17 365)))
(assert (= "." (CharAt var56 973)))
(assert (= "O" (CharAt var22 173)))
(assert (= "h" (CharAt var40 287)))
(assert (= "+" (CharAt var2 5)))
(assert (= "5" (CharAt var42 839)))
(assert (= "9" (CharAt var9 323)))
(assert (= "V" (CharAt var22 597)))
(assert (= "E" (CharAt var33 758)))
(assert (= "X" (CharAt var35 620)))
(assert (= "*" (CharAt var26 585)))
(assert (= "C" (CharAt var11 948)))
(assert (= "e" (CharAt var3 853)))
(assert (= "3" (CharAt var55 984)))
(assert (= "O" (CharAt var39 432)))
(assert (= "d" (CharAt var18 906)))
(assert (= "/" (CharAt var2 895)))
(assert (= "b" (CharAt var53 448)))
(assert (= "{" (CharAt var7 301)))
(assert (= "T" (CharAt var48 305)))
(assert (= "{" (CharAt var33 462)))
(assert (= "Q" (CharAt var47 601)))
(assert (= "3" (CharAt var4 225)))
(assert (= "U" (CharAt var58 691)))
(assert (= "m" (CharAt var50 721)))
(assert (= "*" (CharAt var56 171)))
(assert (= "," (CharAt var53 902)))
(assert (= "4" (CharAt var42 22)))
(assert (= "r" (CharAt var52 91)))
(assert (= "g" (CharAt var32 655)))
(assert (= "|" (CharAt var2 910)))
(assert (= ":" (CharAt var34 733)))
(assert (= "$" (CharAt var15 258)))
(assert (= "|" (CharAt var57 534)))
(assert (= "[" (CharAt var20 17)))
(assert (= "i" (CharAt var15 420)))
(assert (= "]" (CharAt var9 954)))
(assert (= "x" (CharAt var27 334)))
(assert (= "`" (CharAt var4 790)))
(assert (= "{" (CharAt var40 507)))
(assert (= "x" (CharAt var6 457)))
(assert (= "+" (CharAt var54 562)))
(assert (= "g" (CharAt var23 306)))
(assert (= "+" (CharAt var47 366)))
(assert (= "]" (CharAt var25 770)))
(assert (= "$" (CharAt var47 520)))
(assert (= "Q" (CharAt var51 289)))
(assert (= "R" (CharAt var60 678)))
(assert (= "U" (CharAt var38 195)))
(assert (= "i" (CharAt var41 635)))
(assert (= "\"" (CharAt var7 793)))
(assert (= "z" (CharAt var39 994)))
(assert (= "!" (CharAt var40 36)))
(assert (= ")" (CharAt var34 368)))
(assert (= "#" (CharAt var47 685)))
(assert (= "n" (CharAt var58 419)))
(assert (= "@" (CharAt var6 919)))
(assert (= "=" (CharAt var17 852)))
(assert (= "6" (CharAt var10 150)))
(assert (= "T" (CharAt var9 491)))
(assert (= "S" (CharAt var27 105)))
(assert (= ">" (CharAt var34 536)))
(assert (= "^" (CharAt var26 137)))
(assert (= "7" (CharAt var16 881)))
(assert (= "-" (CharAt var41 915)))
(assert (= "A" (CharAt var27 794)))
(assert (= "j" (CharAt var8 968)))
(assert (= "Y" (CharAt var8 449)))
(assert (= "(" (CharAt var23 752)))
(assert (= "p" (CharAt var26 287)))
(assert (= "@" (CharAt var53 907)))
(assert (= "d" (CharAt var59 656)))
(assert (= "K" (CharAt var45 969)))
(assert (= "}" (CharAt var53 43)))
(assert (= "g" (CharAt var37 174)))
(assert (= "7" (CharAt var41 920)))
(assert (= "6" (CharAt var40 932)))
(assert (= ":" (CharAt var16 586)))
(assert (= "\\" (CharAt var1 236)))
(assert (= "?" (CharAt var10 131)))
(assert (= "'" (CharAt var36 938)))
(assert (= "(" (CharAt var4 678)))
(assert (= ":" (CharAt var4 38)))
(assert (= "M" (CharAt var24 452)))
(assert (= "?" (CharAt var24 780)))
(assert (= "D" (CharAt var46 83)))
(assert (= "?" (CharAt var14 850)))
(assert (= "E" (CharAt var19 251)))
(assert (= "R" (CharAt var12 53)))
(assert (= "0" (CharAt var54 278)))
(assert (= "U" (CharAt var36 776)))
(assert (= ":" (CharAt var52 670)))
(assert (= "Y" (CharAt var39 672)))
(assert (= "j" (CharAt var56 324)))
(assert (= "$" (CharAt var45 433)))
(assert (= "f" (CharAt var1 707)))
(assert (= "}" (CharAt var43 809)))
(assert (= "5" (CharAt var12 756)))
(assert (= "n" (CharAt var51 601)))
(assert (= "P" (CharAt var23 575)))
(assert (= "!" (CharAt var22 229)))
(assert (= "8" (CharAt var55 588)))
(assert (= "k" (CharAt var0 762)))
(assert (= "r" (CharAt var30 355)))
(assert (= ";" (CharAt var1 340)))
(assert (= "k" (CharAt var15 234)))
(assert (= "e" (CharAt var42 665)))
(assert (= "j" (CharAt var26 203)))
(assert (= "," (CharAt var10 456)))
(assert (= "[" (CharAt var17 908)))
(assert (= "f" (CharAt var10 382)))
(assert (= "%" (CharAt var50 602)))
(assert (= "L" (CharAt var46 840)))
(assert (= "3" (CharAt var59 163)))
(assert (= "I" (CharAt var33 661)))
(assert (= "6" (CharAt var13 591)))
(assert (= "z" (CharAt var43 907)))
(assert (= "7" (CharAt var17 509)))
(assert (= "1" (CharAt var49 129)))
(assert (= "}" (CharAt var39 419)))
(assert (= "Z" (CharAt var0 747)))
(assert (= "w" (CharAt var24 804)))
(assert (= "O" (CharAt var0 394)))
(assert (= "L" (CharAt var48 923)))
(assert (= "B" (CharAt var14 992)))
(assert (= "u" (CharAt var5 511)))
(assert (= "V" (CharAt var29 381)))
(assert (= "T" (CharAt var15 353)))
(assert (= "j" (CharAt var42 531)))
(assert (= "^" (CharAt var33 410)))
(assert (= "x" (CharAt var15 283)))
(assert (= "|" (CharAt var38 325)))
(assert (= "@" (CharAt var45 11)))
(assert (= "G" (CharAt var58 693)))
(assert (= "-" (CharAt var22 872)))
(assert (= "2" (CharAt var5 768)))
(assert (= "G" (CharAt var47 838)))
(assert (= "|" (CharAt var14 663)))
(assert (= "8" (CharAt var5 946)))
(assert (= "a" (CharAt var56 382)))
(assert (= "k" (CharAt var9 170)))
(assert (= "v" (CharAt var8 456)))
(assert (= ">" (CharAt var21 186)))
(assert (= "D" (CharAt var26 958)))
(assert (= "S" (CharAt var40 441)))
(assert (= "L" (CharAt var25 832)))
(assert (= "C" (CharAt var51 225)))
(assert (= "8" (CharAt var49 401)))
(assert (= "{" (CharAt var14 466)))
(assert (= "D" (CharAt var8 503)))
(assert (= "q" (CharAt var23 993)))
(assert (= "L" (CharAt var60 210)))
(assert (= "x" (CharAt var53 64)))
(assert (= "u" (CharAt var45 224)))
(assert (= "S" (CharAt var4 963)))
(assert (= "@" (CharAt var48 818)))
(assert (= "M" (CharAt var34 512)))
(assert (= "m" (CharAt var5 750)))
(assert (= "\"" (CharAt var39 58)))
(assert (= "'" (CharAt var6 517)))
(assert (= "F" (CharAt var58 798)))
(assert (= "/" (CharAt var57 559)))
(assert (= "Z" (CharAt var44 879)))
(assert (= "0" (CharAt var55 323)))
(assert (= "a" (CharAt var36 589)))
(assert (= "C" (CharAt var54 686)))
(assert (= "V" (CharAt var33 43)))
(assert (= ")" (CharAt var2 258)))
(assert (= "H" (CharAt var60 638)))
(assert (= "7" (CharAt var28 386)))
(assert (= "]" (CharAt var46 101)))
(assert (= "]" (CharAt var23 904)))
(assert (= "t" (CharAt var46 478)))
(assert (= "3" (CharAt var39 147)))
(assert (= "h" (CharAt var17 16)))
(assert (= "h" (CharAt var60 335)))
(assert (= "|" (CharAt var31 569)))
(assert (= "T" (CharAt var22 593)))
(assert (= "g" (CharAt var36 240)))
(assert (= "b" (CharAt var3 950)))
(assert (= "U" (CharAt var53 465)))
(assert (= "H" (CharAt var25 7)))
(assert (= "F" (CharAt var59 420)))
(assert (= "a" (CharAt var41 289)))
(assert (= "," (CharAt var5 561)))
(assert (= "M" (CharAt var5 143)))
(assert (= "h" (CharAt var28 686)))
(assert (= "6" (CharAt var23 373)))
(assert (= "l" (CharAt var52 928)))
(assert (= "a" (CharAt var18 538)))
(assert (= "y" (CharAt var36 480)))
(assert (= "^" (CharAt var41 562)))
(assert (= "T" (CharAt var25 82)))
(assert (= "e" (CharAt var31 571)))
(assert (= "<" (CharAt var12 985)))
(assert (= "Q" (CharAt var2 395)))
(assert (= "3" (CharAt var27 937)))
(assert (= "y" (CharAt var19 489)))
(assert (= "[" (CharAt var4 854)))
(assert (= "]" (CharAt var48 614)))
(assert (= "y" (CharAt var40 15)))
(assert (= "W" (CharAt var19 203)))
(assert (= ";" (CharAt var36 586)))
(assert (= "3" (CharAt var30 427)))
(assert (= "C" (CharAt var8 239)))
(assert (= ")" (CharAt var55 305)))
(assert (= "j" (CharAt var16 596)))
(assert (= "," (CharAt var22 628)))
(assert (= "Y" (CharAt var53 553)))
(assert (= "s" (CharAt var54 948)))
(assert (= "f" (CharAt var0 223)))
(assert (= "<" (CharAt var8 682)))
(assert (= "W" (CharAt var30 608)))
(assert (= "c" (CharAt var8 698)))
(assert (= "@" (CharAt var18 291)))
(assert (= "S" (CharAt var52 897)))
(assert (= "=" (CharAt var60 17)))
(assert (= "K" (CharAt var30 763)))
(assert (= "j" (CharAt var17 389)))
(assert (= "`" (CharAt var43 116)))
(assert (= "J" (CharAt var8 626)))
(assert (= "y" (CharAt var48 898)))
(assert (= "C" (CharAt var57 529)))
(assert (= "-" (CharAt var4 900)))
(assert (= "L" (CharAt var45 562)))
(assert (= "q" (CharAt var47 271)))
(assert (= "." (CharAt var41 38)))
(assert (= "!" (CharAt var31 42)))
(assert (= "o" (CharAt var46 327)))
(assert (= "n" (CharAt var25 824)))
(assert (= "k" (CharAt var40 587)))
(assert (= "W" (CharAt var7 602)))
(assert (= "Q" (CharAt var16 379)))
(assert (= "." (CharAt var4 734)))
(assert (= "?" (CharAt var5 379)))
(assert (= "T" (CharAt var45 976)))
(assert (= "*" (CharAt var53 950)))
(assert (= "U" (CharAt var21 194)))
(assert (= "%" (CharAt var14 70)))
(assert (= "|" (CharAt var57 899)))
(assert (= "Y" (CharAt var38 331)))
(assert (= "C" (CharAt var49 26)))
(assert (= "w" (CharAt var60 71)))
(assert (= "w" (CharAt var46 986)))
(assert (= "W" (CharAt var56 695)))
(assert (= "*" (CharAt var29 306)))
(assert (= "H" (CharAt var21 789)))
(assert (= "." (CharAt var9 662)))
(assert (= "1" (CharAt var5 30)))
(assert (= "{" (CharAt var53 593)))
(assert (= "$" (CharAt var59 799)))
(assert (= "\\" (CharAt var41 595)))
(assert (= "=" (CharAt var53 895)))
(assert (= ";" (CharAt var58 948)))
(assert (= "4" (CharAt var58 871)))
(assert (= "'" (CharAt var36 460)))
(assert (= "9" (CharAt var6 777)))
(assert (= "I" (CharAt var20 23)))
(assert (= "r" (CharAt var13 629)))
(assert (= "5" (CharAt var50 52)))
(assert (= "(" (CharAt var20 149)))
(assert (= "X" (CharAt var51 572)))
(assert (= "+" (CharAt var21 784)))
(assert (= "9" (CharAt var27 598)))
(assert (= "e" (CharAt var14 523)))
(assert (= "\\" (CharAt var27 708)))
(assert (= "6" (CharAt var25 627)))
(assert (= "%" (CharAt var28 26)))
(assert (= "d" (CharAt var46 465)))
(assert (= "[" (CharAt var8 75)))
(assert (= "K" (CharAt var27 322)))
(assert (= "o" (CharAt var33 330)))
(assert (= ")" (CharAt var10 127)))
(assert (= "]" (CharAt var11 740)))
(check-sat)
(get-model)